NAME : rnd54_20.tsp
TYPE : TSP
DIMENSION : 20
EDGE_WEIGHT_TYPE : EUC_2D
NODE_COORD_SECTION
0 30 526
1 468 988
2 527 620
3 773 959
4 341 474
5 717 731
6 331 910
7 813 431
8 78 463
9 0 582
10 553 977
11 133 525
12 491 973
13 324 455
14 20 976
15 473 39
16 835 935
17 142 501
18 828 988
19 672 390
